NAME:  test1
TYPE: AGTSP
COMMENT: gtsp tours
DIMENSION:  65
GTSP_SETS: 17
EDGE_WEIGHT_TYPE: EXPLICIT
EDGE_WEIGHT_FORMAT: FULL_MATRIX 
EDGE_WEIGHT_SECTION
999999	0	999999	999999	35340	35340	35340	35332	35351	35351	999999	999999	35335	35335	35335	35327	35367	35367	999999	999999	35343	35343	35343	35335	35354	35354	999999	999999	35336	35336	35336	35328	35321	35321	35313	999999	35354	35354	999999	999999	35328	35328	35328	35320	35337	35337	35337	35329	35342	35342	35342	35334	35354	35354	999999	999999	35357	35357	999999	999999	35349	35349	999999	999999	0
999999	999999	0	999999	35340	35340	35340	999999	35351	35351	35351	999999	35335	35335	35335	999999	35367	35367	35367	999999	35343	35343	35343	999999	35354	35354	35354	999999	35336	35336	35336	999999	35321	35321	35321	35313	35354	35354	35354	999999	35328	35328	35328	999999	35337	35337	35337	999999	35342	35342	35342	999999	35354	35354	35354	999999	35357	35357	35357	999999	35349	35349	35349	999999	0
999999	999999	999999	0	35340	35340	35340	35340	35351	35351	35351	35351	35335	35335	35335	35335	35367	35367	35367	35367	35343	35343	35343	35343	35354	35354	35354	35354	35336	35336	35336	35336	35321	35321	35321	35321	35354	35354	35354	35354	35328	35328	35328	35328	35337	35337	35337	35337	35342	35342	35342	35342	35354	35354	35354	35354	35357	35357	35357	35357	35349	35349	35349	35349	0
0	999999	999999	999999	35340	35340	35332	999999	35351	35351	35351	35343	35335	35335	35327	999999	35367	35367	35367	35359	35343	35343	35335	999999	35354	35354	35354	35346	35336	35336	35328	999999	35321	35313	999999	999999	35354	35354	35354	35346	35328	35328	35320	999999	35337	35337	35329	999999	35342	35342	35334	999999	35354	35354	35354	35346	35357	35357	35357	35349	35349	35349	35349	35341	0
35340	35340	35340	35332	999999	0	999999	999999	35359	35359	999999	999999	35332	35332	35332	35324	35357	35357	999999	999999	35356	35356	999999	999999	35349	35349	999999	999999	35322	35322	35314	999999	35347	35347	999999	999999	35363	35363	999999	999999	35318	35318	35310	999999	35343	35343	35343	35335	35315	35315	35307	999999	35320	35320	35312	999999	35331	35331	35331	35323	35354	35354	999999	999999	0
35340	35340	35340	999999	999999	999999	0	999999	35359	35359	35359	999999	35332	35332	35332	999999	35357	35357	35357	999999	35356	35356	35356	999999	35349	35349	35349	999999	35322	35322	35322	35314	35347	35347	35347	999999	35363	35363	35363	999999	35318	35318	35318	35310	35343	35343	35343	999999	35315	35315	35315	35307	35320	35320	35320	35312	35331	35331	35331	999999	35354	35354	35354	999999	0
35340	35340	35340	35340	999999	999999	999999	0	35359	35359	35359	35359	35332	35332	35332	35332	35357	35357	35357	35357	35356	35356	35356	35356	35349	35349	35349	35349	35322	35322	35322	35322	35347	35347	35347	35347	35363	35363	35363	35363	35318	35318	35318	35318	35343	35343	35343	35343	35315	35315	35315	35315	35320	35320	35320	35320	35331	35331	35331	35331	35354	35354	35354	35354	0
35340	35340	35332	999999	0	999999	999999	999999	35359	35359	35359	35351	35332	35332	35324	999999	35357	35357	35357	35349	35356	35356	35356	35348	35349	35349	35349	35341	35322	35314	999999	999999	35347	35347	35347	35339	35363	35363	35363	35355	35318	35310	999999	999999	35343	35343	35335	999999	35315	35307	999999	999999	35320	35312	999999	999999	35331	35331	35323	999999	35354	35354	35354	35346	0
35351	35351	999999	999999	35359	35359	999999	999999	999999	0	999999	999999	35332	35332	35332	35324	35332	35332	35332	35324	35313	35313	35305	999999	35322	35322	35314	999999	35341	35341	35341	35333	35336	35336	35336	35328	35308	35308	35300	999999	35348	35348	999999	999999	35321	35321	35313	999999	35350	35350	999999	999999	35361	35361	999999	999999	35349	35349	999999	999999	35309	35309	35301	999999	0
35351	35351	35351	999999	35359	35359	35359	999999	999999	999999	0	999999	35332	35332	35332	999999	35332	35332	35332	999999	35313	35313	35313	35305	35322	35322	35322	35314	35341	35341	35341	999999	35336	35336	35336	999999	35308	35308	35308	35300	35348	35348	35348	999999	35321	35321	35321	35313	35350	35350	35350	999999	35361	35361	35361	999999	35349	35349	35349	999999	35309	35309	35309	35301	0
35351	35351	35351	35351	35359	35359	35359	35359	999999	999999	999999	0	35332	35332	35332	35332	35332	35332	35332	35332	35313	35313	35313	35313	35322	35322	35322	35322	35341	35341	35341	35341	35336	35336	35336	35336	35308	35308	35308	35308	35348	35348	35348	35348	35321	35321	35321	35321	35350	35350	35350	35350	35361	35361	35361	35361	35349	35349	35349	35349	35309	35309	35309	35309	0
35351	35351	35351	35343	35359	35359	35359	35351	0	999999	999999	999999	35332	35332	35324	999999	35332	35332	35324	999999	35313	35305	999999	999999	35322	35314	999999	999999	35341	35341	35333	999999	35336	35336	35328	999999	35308	35300	999999	999999	35348	35348	35348	35340	35321	35313	999999	999999	35350	35350	35350	35342	35361	35361	35361	35353	35349	35349	35349	35341	35309	35301	999999	999999	0
35335	35335	35335	35327	35332	35332	35332	35324	35332	35332	35332	35324	999999	0	999999	999999	35337	35337	35337	35329	35329	35329	35329	35321	35325	35325	35325	35317	35313	35313	35305	999999	35329	35329	35329	35321	35336	35336	35336	35328	35321	35321	35313	999999	35315	35315	35307	999999	35323	35323	35315	999999	35337	35337	35337	35329	35330	35330	35330	35322	35327	35327	35327	35319	0
35335	35335	35335	999999	35332	35332	35332	999999	35332	35332	35332	999999	999999	999999	0	999999	35337	35337	35337	999999	35329	35329	35329	999999	35325	35325	35325	999999	35313	35313	35313	35305	35329	35329	35329	999999	35336	35336	35336	999999	35321	35321	35321	35313	35315	35315	35315	35307	35323	35323	35323	35315	35337	35337	35337	999999	35330	35330	35330	999999	35327	35327	35327	999999	0
35335	35335	35335	35335	35332	35332	35332	35332	35332	35332	35332	35332	999999	999999	999999	0	35337	35337	35337	35337	35329	35329	35329	35329	35325	35325	35325	35325	35313	35313	35313	35313	35329	35329	35329	35329	35336	35336	35336	35336	35321	35321	35321	35321	35315	35315	35315	35315	35323	35323	35323	35323	35337	35337	35337	35337	35330	35330	35330	35330	35327	35327	35327	35327	0
35335	35335	35327	999999	35332	35332	35324	999999	35332	35332	35324	999999	0	999999	999999	999999	35337	35337	35329	999999	35329	35329	35321	999999	35325	35325	35317	999999	35313	35305	999999	999999	35329	35329	35321	999999	35336	35336	35328	999999	35321	35313	999999	999999	35315	35307	999999	999999	35323	35315	999999	999999	35337	35337	35329	999999	35330	35330	35322	999999	35327	35327	35319	999999	0
35367	35367	999999	999999	35357	35357	999999	999999	35332	35332	35332	35324	35337	35337	35337	35329	999999	0	999999	999999	35339	35339	35339	35331	35317	35317	35309	999999	35341	35341	35341	35333	35357	35357	999999	999999	35335	35335	35335	35327	35352	35352	999999	999999	35335	35335	35335	35327	35345	35345	35345	35337	35351	35351	999999	999999	35334	35334	35334	35326	35329	35329	35329	35321	0
35367	35367	35367	999999	35357	35357	35357	999999	35332	35332	35332	999999	35337	35337	35337	999999	999999	999999	0	999999	35339	35339	35339	999999	35317	35317	35317	35309	35341	35341	35341	999999	35357	35357	35357	999999	35335	35335	35335	999999	35352	35352	35352	999999	35335	35335	35335	999999	35345	35345	35345	999999	35351	35351	35351	999999	35334	35334	35334	999999	35329	35329	35329	999999	0
35367	35367	35367	35367	35357	35357	35357	35357	35332	35332	35332	35332	35337	35337	35337	35337	999999	999999	999999	0	35339	35339	35339	35339	35317	35317	35317	35317	35341	35341	35341	35341	35357	35357	35357	35357	35335	35335	35335	35335	35352	35352	35352	35352	35335	35335	35335	35335	35345	35345	35345	35345	35351	35351	35351	35351	35334	35334	35334	35334	35329	35329	35329	35329	0
35367	35367	35367	35359	35357	35357	35357	35349	35332	35332	35324	999999	35337	35337	35329	999999	0	999999	999999	999999	35339	35339	35331	999999	35317	35309	999999	999999	35341	35341	35333	999999	35357	35357	35357	35349	35335	35335	35327	999999	35352	35352	35352	35344	35335	35335	35327	999999	35345	35345	35337	999999	35351	35351	35351	35343	35334	35334	35326	999999	35329	35329	35321	999999	0
35343	35343	35343	35335	35356	35356	999999	999999	35313	35313	35305	999999	35329	35329	35329	35321	35339	35339	35339	35331	999999	0	999999	999999	35327	35327	35327	35319	35338	35338	35338	35330	35327	35327	35327	35319	35315	35315	35307	999999	35344	35344	35344	35336	35318	35318	35310	999999	35348	35348	999999	999999	35361	35361	999999	999999	35351	35351	999999	999999	35314	35314	35306	999999	0
35343	35343	35343	999999	35356	35356	35356	999999	35313	35313	35313	35305	35329	35329	35329	999999	35339	35339	35339	999999	999999	999999	0	999999	35327	35327	35327	999999	35338	35338	35338	999999	35327	35327	35327	999999	35315	35315	35315	35307	35344	35344	35344	999999	35318	35318	35318	35310	35348	35348	35348	999999	35361	35361	35361	999999	35351	35351	35351	999999	35314	35314	35314	35306	0
35343	35343	35343	35343	35356	35356	35356	35356	35313	35313	35313	35313	35329	35329	35329	35329	35339	35339	35339	35339	999999	999999	999999	0	35327	35327	35327	35327	35338	35338	35338	35338	35327	35327	35327	35327	35315	35315	35315	35315	35344	35344	35344	35344	35318	35318	35318	35318	35348	35348	35348	35348	35361	35361	35361	35361	35351	35351	35351	35351	35314	35314	35314	35314	0
35343	35343	35335	999999	35356	35356	35356	35348	35313	35305	999999	999999	35329	35329	35321	999999	35339	35339	35331	999999	0	999999	999999	999999	35327	35327	35319	999999	35338	35338	35330	999999	35327	35327	35319	999999	35315	35307	999999	999999	35344	35344	35336	999999	35318	35310	999999	999999	35348	35348	35348	35340	35361	35361	35361	35353	35351	35351	35351	35343	35314	35306	999999	999999	0
35354	35354	999999	999999	35349	35349	999999	999999	35322	35322	35314	999999	35325	35325	35325	35317	35317	35317	35309	999999	35327	35327	35327	35319	999999	0	999999	999999	35331	35331	35331	35323	35343	35343	35343	35335	35326	35326	35326	35318	35342	35342	35342	35334	35322	35322	35314	999999	35338	35338	35338	35330	35347	35347	999999	999999	35333	35333	35333	35325	35318	35318	35310	999999	0
35354	35354	35354	999999	35349	35349	35349	999999	35322	35322	35322	35314	35325	35325	35325	999999	35317	35317	35317	35309	35327	35327	35327	999999	999999	999999	0	999999	35331	35331	35331	999999	35343	35343	35343	999999	35326	35326	35326	999999	35342	35342	35342	999999	35322	35322	35322	35314	35338	35338	35338	999999	35347	35347	35347	999999	35333	35333	35333	999999	35318	35318	35318	35310	0
35354	35354	35354	35354	35349	35349	35349	35349	35322	35322	35322	35322	35325	35325	35325	35325	35317	35317	35317	35317	35327	35327	35327	35327	999999	999999	999999	0	35331	35331	35331	35331	35343	35343	35343	35343	35326	35326	35326	35326	35342	35342	35342	35342	35322	35322	35322	35322	35338	35338	35338	35338	35347	35347	35347	35347	35333	35333	35333	35333	35318	35318	35318	35318	0
35354	35354	35354	35346	35349	35349	35349	35341	35322	35314	999999	999999	35325	35325	35317	999999	35317	35309	999999	999999	35327	35327	35319	999999	0	999999	999999	999999	35331	35331	35323	999999	35343	35343	35335	999999	35326	35326	35318	999999	35342	35342	35334	999999	35322	35314	999999	999999	35338	35338	35330	999999	35347	35347	35347	35339	35333	35333	35325	999999	35318	35310	999999	999999	0
35336	35336	35336	35328	35322	35322	35314	999999	35341	35341	35341	35333	35313	35313	35305	999999	35341	35341	35341	35333	35338	35338	35338	35330	35331	35331	35331	35323	999999	0	999999	999999	35335	35335	35335	35327	35345	35345	35345	35337	35315	35315	35307	999999	35325	35325	35317	999999	35314	35314	35306	999999	35328	35328	35328	35320	35325	35325	35317	999999	35336	35336	35336	35328	0
35336	35336	35336	999999	35322	35322	35322	35314	35341	35341	35341	999999	35313	35313	35313	35305	35341	35341	35341	999999	35338	35338	35338	999999	35331	35331	35331	999999	999999	999999	0	999999	35335	35335	35335	999999	35345	35345	35345	999999	35315	35315	35315	35307	35325	35325	35325	35317	35314	35314	35314	35306	35328	35328	35328	999999	35325	35325	35325	35317	35336	35336	35336	999999	0
35336	35336	35336	35336	35322	35322	35322	35322	35341	35341	35341	35341	35313	35313	35313	35313	35341	35341	35341	35341	35338	35338	35338	35338	35331	35331	35331	35331	999999	999999	999999	0	35335	35335	35335	35335	35345	35345	35345	35345	35315	35315	35315	35315	35325	35325	35325	35325	35314	35314	35314	35314	35328	35328	35328	35328	35325	35325	35325	35325	35336	35336	35336	35336	0
35336	35336	35328	999999	35322	35314	999999	999999	35341	35341	35333	999999	35313	35305	999999	999999	35341	35341	35333	999999	35338	35338	35330	999999	35331	35331	35323	999999	0	999999	999999	999999	35335	35335	35327	999999	35345	35345	35337	999999	35315	35307	999999	999999	35325	35317	999999	999999	35314	35306	999999	999999	35328	35328	35320	999999	35325	35317	999999	999999	35336	35336	35328	999999	0
35321	35321	35313	999999	35347	35347	999999	999999	35336	35336	35336	35328	35329	35329	35329	35321	35357	35357	999999	999999	35327	35327	35327	35319	35343	35343	35343	35335	35335	35335	35335	35327	999999	0	999999	999999	35338	35338	35338	35330	35333	35333	35333	35325	35326	35326	35326	35318	35344	35344	35344	35336	35358	35358	999999	999999	35355	35355	999999	999999	35335	35335	35335	35327	0
35321	35321	35321	35313	35347	35347	35347	999999	35336	35336	35336	999999	35329	35329	35329	999999	35357	35357	35357	999999	35327	35327	35327	999999	35343	35343	35343	999999	35335	35335	35335	999999	999999	999999	0	999999	35338	35338	35338	999999	35333	35333	35333	999999	35326	35326	35326	999999	35344	35344	35344	999999	35358	35358	35358	999999	35355	35355	35355	999999	35335	35335	35335	999999	0
35321	35321	35321	35321	35347	35347	35347	35347	35336	35336	35336	35336	35329	35329	35329	35329	35357	35357	35357	35357	35327	35327	35327	35327	35343	35343	35343	35343	35335	35335	35335	35335	999999	999999	999999	0	35338	35338	35338	35338	35333	35333	35333	35333	35326	35326	35326	35326	35344	35344	35344	35344	35358	35358	35358	35358	35355	35355	35355	35355	35335	35335	35335	35335	0
35321	35313	999999	999999	35347	35347	35347	35339	35336	35336	35328	999999	35329	35329	35321	999999	35357	35357	35357	35349	35327	35327	35319	999999	35343	35343	35335	999999	35335	35335	35327	999999	0	999999	999999	999999	35338	35338	35330	999999	35333	35333	35325	999999	35326	35326	35318	999999	35344	35344	35336	999999	35358	35358	35358	35350	35355	35355	35355	35347	35335	35335	35327	999999	0
35354	35354	999999	999999	35363	35363	999999	999999	35308	35308	35300	999999	35336	35336	35336	35328	35335	35335	35335	35327	35315	35315	35307	999999	35326	35326	35326	35318	35345	35345	35345	35337	35338	35338	35338	35330	999999	0	999999	999999	35352	35352	999999	999999	35325	35325	35317	999999	35354	35354	999999	999999	35366	35366	999999	999999	35354	35354	999999	999999	35313	35313	35305	999999	0
35354	35354	35354	999999	35363	35363	35363	999999	35308	35308	35308	35300	35336	35336	35336	999999	35335	35335	35335	999999	35315	35315	35315	35307	35326	35326	35326	999999	35345	35345	35345	999999	35338	35338	35338	999999	999999	999999	0	999999	35352	35352	35352	999999	35325	35325	35325	35317	35354	35354	35354	999999	35366	35366	35366	999999	35354	35354	35354	999999	35313	35313	35313	35305	0
35354	35354	35354	35354	35363	35363	35363	35363	35308	35308	35308	35308	35336	35336	35336	35336	35335	35335	35335	35335	35315	35315	35315	35315	35326	35326	35326	35326	35345	35345	35345	35345	35338	35338	35338	35338	999999	999999	999999	0	35352	35352	35352	35352	35325	35325	35325	35325	35354	35354	35354	35354	35366	35366	35366	35366	35354	35354	35354	35354	35313	35313	35313	35313	0
35354	35354	35354	35346	35363	35363	35363	35355	35308	35300	999999	999999	35336	35336	35328	999999	35335	35335	35327	999999	35315	35307	999999	999999	35326	35326	35318	999999	35345	35345	35337	999999	35338	35338	35330	999999	0	999999	999999	999999	35352	35352	35352	35344	35325	35317	999999	999999	35354	35354	35354	35346	35366	35366	35366	35358	35354	35354	35354	35346	35313	35305	999999	999999	0
35328	35328	35328	35320	35318	35318	35310	999999	35348	35348	999999	999999	35321	35321	35313	999999	35352	35352	999999	999999	35344	35344	35344	35336	35342	35342	35342	35334	35315	35315	35307	999999	35333	35333	35333	35325	35352	35352	999999	999999	999999	0	999999	999999	35331	35331	35331	35323	35318	35318	35310	999999	35330	35330	35330	35322	35334	35334	35334	35326	35344	35344	35344	35336	0
35328	35328	35328	999999	35318	35318	35318	35310	35348	35348	35348	999999	35321	35321	35321	35313	35352	35352	35352	999999	35344	35344	35344	999999	35342	35342	35342	999999	35315	35315	35315	35307	35333	35333	35333	999999	35352	35352	35352	999999	999999	999999	0	999999	35331	35331	35331	999999	35318	35318	35318	35310	35330	35330	35330	999999	35334	35334	35334	999999	35344	35344	35344	999999	0
35328	35328	35328	35328	35318	35318	35318	35318	35348	35348	35348	35348	35321	35321	35321	35321	35352	35352	35352	35352	35344	35344	35344	35344	35342	35342	35342	35342	35315	35315	35315	35315	35333	35333	35333	35333	35352	35352	35352	35352	999999	999999	999999	0	35331	35331	35331	35331	35318	35318	35318	35318	35330	35330	35330	35330	35334	35334	35334	35334	35344	35344	35344	35344	0
35328	35328	35320	999999	35318	35310	999999	999999	35348	35348	35348	35340	35321	35313	999999	999999	35352	35352	35352	35344	35344	35344	35336	999999	35342	35342	35334	999999	35315	35307	999999	999999	35333	35333	35325	999999	35352	35352	35352	35344	0	999999	999999	999999	35331	35331	35323	999999	35318	35310	999999	999999	35330	35330	35322	999999	35334	35334	35326	999999	35344	35344	35336	999999	0
35337	35337	35337	35329	35343	35343	35343	35335	35321	35321	35313	999999	35315	35315	35307	999999	35335	35335	35335	35327	35318	35318	35310	999999	35322	35322	35314	999999	35325	35325	35317	999999	35326	35326	35326	35318	35325	35325	35317	999999	35331	35331	35331	35323	999999	0	999999	999999	35334	35334	35334	35326	35347	35347	999999	999999	35338	35338	35338	35330	35317	35317	35309	999999	0
35337	35337	35337	999999	35343	35343	35343	999999	35321	35321	35321	35313	35315	35315	35315	35307	35335	35335	35335	999999	35318	35318	35318	35310	35322	35322	35322	35314	35325	35325	35325	35317	35326	35326	35326	999999	35325	35325	35325	35317	35331	35331	35331	999999	999999	999999	0	999999	35334	35334	35334	999999	35347	35347	35347	999999	35338	35338	35338	999999	35317	35317	35317	35309	0
35337	35337	35337	35337	35343	35343	35343	35343	35321	35321	35321	35321	35315	35315	35315	35315	35335	35335	35335	35335	35318	35318	35318	35318	35322	35322	35322	35322	35325	35325	35325	35325	35326	35326	35326	35326	35325	35325	35325	35325	35331	35331	35331	35331	999999	999999	999999	0	35334	35334	35334	35334	35347	35347	35347	35347	35338	35338	35338	35338	35317	35317	35317	35317	0
35337	35337	35329	999999	35343	35343	35335	999999	35321	35313	999999	999999	35315	35307	999999	999999	35335	35335	35327	999999	35318	35310	999999	999999	35322	35314	999999	999999	35325	35317	999999	999999	35326	35326	35318	999999	35325	35317	999999	999999	35331	35331	35323	999999	0	999999	999999	999999	35334	35334	35326	999999	35347	35347	35347	35339	35338	35338	35330	999999	35317	35309	999999	999999	0
35342	35342	35342	35334	35315	35315	35307	999999	35350	35350	999999	999999	35323	35323	35315	999999	35345	35345	35345	35337	35348	35348	999999	999999	35338	35338	35338	35330	35314	35314	35306	999999	35344	35344	35344	35336	35354	35354	999999	999999	35318	35318	35310	999999	35334	35334	35334	35326	999999	0	999999	999999	35318	35318	35310	999999	35321	35321	35313	999999	35345	35345	35345	35337	0
35342	35342	35342	999999	35315	35315	35315	35307	35350	35350	35350	999999	35323	35323	35323	35315	35345	35345	35345	999999	35348	35348	35348	999999	35338	35338	35338	999999	35314	35314	35314	35306	35344	35344	35344	999999	35354	35354	35354	999999	35318	35318	35318	35310	35334	35334	35334	999999	999999	999999	0	999999	35318	35318	35318	35310	35321	35321	35321	35313	35345	35345	35345	999999	0
35342	35342	35342	35342	35315	35315	35315	35315	35350	35350	35350	35350	35323	35323	35323	35323	35345	35345	35345	35345	35348	35348	35348	35348	35338	35338	35338	35338	35314	35314	35314	35314	35344	35344	35344	35344	35354	35354	35354	35354	35318	35318	35318	35318	35334	35334	35334	35334	999999	999999	999999	0	35318	35318	35318	35318	35321	35321	35321	35321	35345	35345	35345	35345	0
35342	35342	35334	999999	35315	35307	999999	999999	35350	35350	35350	35342	35323	35315	999999	999999	35345	35345	35337	999999	35348	35348	35348	35340	35338	35338	35330	999999	35314	35306	999999	999999	35344	35344	35336	999999	35354	35354	35354	35346	35318	35310	999999	999999	35334	35334	35326	999999	0	999999	999999	999999	35318	35310	999999	999999	35321	35313	999999	999999	35345	35345	35337	999999	0
35354	35354	999999	999999	35320	35320	35312	999999	35361	35361	999999	999999	35337	35337	35337	35329	35351	35351	999999	999999	35361	35361	999999	999999	35347	35347	999999	999999	35328	35328	35328	35320	35358	35358	999999	999999	35366	35366	999999	999999	35330	35330	35330	35322	35347	35347	999999	999999	35318	35318	35310	999999	999999	0	999999	999999	35321	35321	35313	999999	35356	35356	999999	999999	0
35354	35354	35354	999999	35320	35320	35320	35312	35361	35361	35361	999999	35337	35337	35337	999999	35351	35351	35351	999999	35361	35361	35361	999999	35347	35347	35347	999999	35328	35328	35328	999999	35358	35358	35358	999999	35366	35366	35366	999999	35330	35330	35330	999999	35347	35347	35347	999999	35318	35318	35318	35310	999999	999999	0	999999	35321	35321	35321	35313	35356	35356	35356	999999	0
35354	35354	35354	35354	35320	35320	35320	35320	35361	35361	35361	35361	35337	35337	35337	35337	35351	35351	35351	35351	35361	35361	35361	35361	35347	35347	35347	35347	35328	35328	35328	35328	35358	35358	35358	35358	35366	35366	35366	35366	35330	35330	35330	35330	35347	35347	35347	35347	35318	35318	35318	35318	999999	999999	999999	0	35321	35321	35321	35321	35356	35356	35356	35356	0
35354	35354	35354	35346	35320	35312	999999	999999	35361	35361	35361	35353	35337	35337	35329	999999	35351	35351	35351	35343	35361	35361	35361	35353	35347	35347	35347	35339	35328	35328	35320	999999	35358	35358	35358	35350	35366	35366	35366	35358	35330	35330	35322	999999	35347	35347	35347	35339	35318	35310	999999	999999	0	999999	999999	999999	35321	35313	999999	999999	35356	35356	35356	35348	0
35357	35357	999999	999999	35331	35331	35331	35323	35349	35349	999999	999999	35330	35330	35330	35322	35334	35334	35334	35326	35351	35351	999999	999999	35333	35333	35333	35325	35325	35325	35317	999999	35355	35355	999999	999999	35354	35354	999999	999999	35334	35334	35334	35326	35338	35338	35338	35330	35321	35321	35313	999999	35321	35321	35313	999999	999999	0	999999	999999	35344	35344	35344	35336	0
35357	35357	35357	999999	35331	35331	35331	999999	35349	35349	35349	999999	35330	35330	35330	999999	35334	35334	35334	999999	35351	35351	35351	999999	35333	35333	35333	999999	35325	35325	35325	35317	35355	35355	35355	999999	35354	35354	35354	999999	35334	35334	35334	999999	35338	35338	35338	999999	35321	35321	35321	35313	35321	35321	35321	35313	999999	999999	0	999999	35344	35344	35344	999999	0
35357	35357	35357	35357	35331	35331	35331	35331	35349	35349	35349	35349	35330	35330	35330	35330	35334	35334	35334	35334	35351	35351	35351	35351	35333	35333	35333	35333	35325	35325	35325	35325	35355	35355	35355	35355	35354	35354	35354	35354	35334	35334	35334	35334	35338	35338	35338	35338	35321	35321	35321	35321	35321	35321	35321	35321	999999	999999	999999	0	35344	35344	35344	35344	0
35357	35357	35357	35349	35331	35331	35323	999999	35349	35349	35349	35341	35330	35330	35322	999999	35334	35334	35326	999999	35351	35351	35351	35343	35333	35333	35325	999999	35325	35317	999999	999999	35355	35355	35355	35347	35354	35354	35354	35346	35334	35334	35326	999999	35338	35338	35330	999999	35321	35313	999999	999999	35321	35313	999999	999999	0	999999	999999	999999	35344	35344	35336	999999	0
35349	35349	999999	999999	35354	35354	999999	999999	35309	35309	35301	999999	35327	35327	35327	35319	35329	35329	35329	35321	35314	35314	35306	999999	35318	35318	35310	999999	35336	35336	35336	35328	35335	35335	35335	35327	35313	35313	35305	999999	35344	35344	35344	35336	35317	35317	35309	999999	35345	35345	35345	35337	35356	35356	999999	999999	35344	35344	35344	35336	999999	0	999999	999999	0
35349	35349	35349	999999	35354	35354	35354	999999	35309	35309	35309	35301	35327	35327	35327	999999	35329	35329	35329	999999	35314	35314	35314	35306	35318	35318	35318	35310	35336	35336	35336	999999	35335	35335	35335	999999	35313	35313	35313	35305	35344	35344	35344	999999	35317	35317	35317	35309	35345	35345	35345	999999	35356	35356	35356	999999	35344	35344	35344	999999	999999	999999	0	999999	0
35349	35349	35349	35349	35354	35354	35354	35354	35309	35309	35309	35309	35327	35327	35327	35327	35329	35329	35329	35329	35314	35314	35314	35314	35318	35318	35318	35318	35336	35336	35336	35336	35335	35335	35335	35335	35313	35313	35313	35313	35344	35344	35344	35344	35317	35317	35317	35317	35345	35345	35345	35345	35356	35356	35356	35356	35344	35344	35344	35344	999999	999999	999999	0	0
35349	35349	35349	35341	35354	35354	35354	35346	35309	35301	999999	999999	35327	35327	35319	999999	35329	35329	35321	999999	35314	35306	999999	999999	35318	35310	999999	999999	35336	35336	35328	999999	35335	35335	35327	999999	35313	35305	999999	999999	35344	35344	35336	999999	35317	35309	999999	999999	35345	35345	35337	999999	35356	35356	35356	35348	35344	35344	35336	999999	0	999999	999999	999999	0
35296	999999	999999	999999	35296	999999	999999	999999	35296	999999	999999	999999	35296	999999	999999	999999	35296	999999	999999	999999	35296	999999	999999	999999	35296	999999	999999	999999	35296	999999	999999	999999	35296	999999	999999	999999	35296	999999	999999	999999	35296	999999	999999	999999	35296	999999	999999	999999	35296	999999	999999	999999	35296	999999	999999	999999	35296	999999	999999	999999	35296	999999	999999	999999	999999
GTSP_SET_SECTION:
1 1 2 3 4 -1
2 5 6 7 8 -1
3 9 10 11 12 -1
4 13 14 15 16 -1
5 17 18 19 20 -1
6 21 22 23 24 -1
7 25 26 27 28 -1
8 29 30 31 32 -1
9 33 34 35 36 -1
10 37 38 39 40 -1
11 41 42 43 44 -1
12 45 46 47 48 -1
13 49 50 51 52 -1
14 53 54 55 56 -1
15 57 58 59 60 -1
16 61 62 63 64 -1
17 65 -1
EOF